p cnf 589 1581
a 1 2 3 4 5 6 7 8 9 10 11 12 13 14 15 16 17 18 19 20 21 22 23 24 25 26 27 28 29 30 31 32 33 34 35 36 37 38 39 40 41 42 43 44 45 46 47 48 49 50 51 52 53 54 55 56 57 58 59 60 61 62 63 64 0
e 65 66 67 68 69 70 71 72 73 74 75 76 77 78 79 80 81 82 83 84 85 86 87 88 89 90 91 92 93 94 95 96 97 98 99 100 101 102 103 104 105 106 107 108 109 110 111 112 113 114 115 116 117 118 119 120 121 122 123 124 125 126 127 128 129 130 131 132 133 134 135 136 137 138 139 140 141 142 143 144 145 146 147 148 149 150 151 152 153 154 155 156 157 158 159 160 161 162 163 164 165 166 167 168 169 170 171 172 173 174 175 176 177 178 179 180 181 182 183 184 185 186 187 188 189 190 191 192 193 194 195 196 197 198 199 200 201 202 203 204 205 206 207 208 209 210 211 212 213 214 215 216 217 218 219 220 221 222 223 224 225 226 227 228 229 230 231 232 233 234 235 236 237 238 239 240 241 242 243 244 245 246 247 248 249 250 251 252 253 254 255 256 257 258 259 260 261 262 263 264 265 266 267 268 269 270 271 272 273 274 275 276 277 278 279 280 281 282 283 284 285 286 287 288 289 290 291 292 293 294 295 296 297 298 299 300 301 302 303 304 305 306 307 308 309 310 311 312 313 314 315 316 317 318 319 320 321 322 323 324 325 326 327 328 329 330 331 332 333 334 335 336 337 338 339 340 341 342 343 344 345 346 347 348 349 350 351 352 353 354 355 356 357 358 359 360 361 362 363 364 365 366 367 368 369 370 371 372 373 374 375 376 377 378 379 380 381 382 383 384 385 386 387 388 389 390 391 392 393 394 395 396 397 398 399 400 401 402 403 404 405 406 407 408 409 410 411 412 413 414 415 416 417 418 419 420 421 422 423 424 425 426 427 428 429 430 431 432 433 434 435 436 437 438 439 440 441 442 443 444 445 446 447 448 449 450 451 452 453 454 455 456 457 458 459 460 461 462 463 464 465 466 467 468 469 470 471 472 473 474 475 476 477 478 479 480 481 482 483 484 485 486 487 488 489 490 491 492 493 494 495 496 497 498 499 500 501 502 503 504 505 506 507 508 509 510 511 512 513 514 515 516 517 518 519 520 521 522 523 524 525 526 527 528 529 530 531 532 533 534 535 536 537 538 539 540 541 542 543 544 545 546 547 548 549 550 551 552 553 554 555 556 557 558 559 560 561 562 563 564 565 566 567 568 569 570 571 572 573 574 575 576 577 578 579 580 581 582 583 584 585 586 587 0
81 65 0
-81 -65 0
82 66 -81 0
-82 81 0
-82 -66 0
83 -82 0
-83 82 0
84 67 -83 0
-84 83 0
-84 -67 0
85 -84 0
-85 84 0
86 68 -85 0
-86 85 0
-86 -68 0
87 -86 0
-87 86 0
88 69 -87 0
-88 87 0
-88 -69 0
89 -88 0
-89 88 0
90 70 -89 0
-90 89 0
-90 -70 0
91 -90 0
-91 90 0
92 71 -91 0
-92 91 0
-92 -71 0
93 -92 0
-93 92 0
94 72 -93 0
-94 93 0
-94 -72 0
95 -94 0
-95 94 0
96 73 -95 0
-96 95 0
-96 -73 0
97 -96 0
-97 96 0
98 74 -97 0
-98 97 0
-98 -74 0
99 -98 0
-99 98 0
100 75 -99 0
-100 99 0
-100 -75 0
101 -100 0
-101 100 0
102 76 -101 0
-102 101 0
-102 -76 0
103 -102 0
-103 102 0
104 77 -103 0
-104 103 0
-104 -77 0
105 -104 0
-105 104 0
106 78 -105 0
-106 105 0
-106 -78 0
107 -106 0
-107 106 0
108 79 -107 0
-108 107 0
-108 -79 0
109 -108 0
-109 108 0
110 80 -109 0
-110 109 0
-110 -80 0
111 -110 0
-111 110 0
113 0
-113 111 -112 0
114 -65 0
-114 65 0
115 -66 -114 0
115 66 114 0
-115 -66 114 0
-115 66 -114 0
116 -66 -114 0
-116 114 0
-116 66 0
117 -114 0
117 -116 0
117 -66 0
-117 66 114 116 0
118 -67 -117 0
118 67 117 0
-118 -67 117 0
-118 67 -117 0
119 -67 -117 0
-119 117 0
-119 67 0
120 -117 0
120 -119 0
120 -67 0
-120 67 117 119 0
121 -68 -120 0
121 68 120 0
-121 -68 120 0
-121 68 -120 0
122 -68 -120 0
-122 120 0
-122 68 0
123 -120 0
123 -122 0
123 -68 0
-123 68 120 122 0
124 -69 -123 0
124 69 123 0
-124 -69 123 0
-124 69 -123 0
125 -69 -123 0
-125 123 0
-125 69 0
126 -123 0
126 -125 0
126 -69 0
-126 69 123 125 0
127 -70 -126 0
127 70 126 0
-127 -70 126 0
-127 70 -126 0
128 -70 -126 0
-128 126 0
-128 70 0
129 -126 0
129 -128 0
129 -70 0
-129 70 126 128 0
130 -71 -129 0
130 71 129 0
-130 -71 129 0
-130 71 -129 0
131 -71 -129 0
-131 129 0
-131 71 0
132 -129 0
132 -131 0
132 -71 0
-132 71 129 131 0
133 -72 -132 0
133 72 132 0
-133 -72 132 0
-133 72 -132 0
134 -72 -132 0
-134 132 0
-134 72 0
135 -132 0
135 -134 0
135 -72 0
-135 72 132 134 0
136 -73 -135 0
136 73 135 0
-136 -73 135 0
-136 73 -135 0
137 -73 -135 0
-137 135 0
-137 73 0
138 -135 0
138 -137 0
138 -73 0
-138 73 135 137 0
139 -74 -138 0
139 74 138 0
-139 -74 138 0
-139 74 -138 0
140 -74 -138 0
-140 138 0
-140 74 0
141 -138 0
141 -140 0
141 -74 0
-141 74 138 140 0
142 -75 -141 0
142 75 141 0
-142 -75 141 0
-142 75 -141 0
143 -75 -141 0
-143 141 0
-143 75 0
144 -141 0
144 -143 0
144 -75 0
-144 75 141 143 0
145 -76 -144 0
145 76 144 0
-145 -76 144 0
-145 76 -144 0
146 -76 -144 0
-146 144 0
-146 76 0
147 -144 0
147 -146 0
147 -76 0
-147 76 144 146 0
148 -77 -147 0
148 77 147 0
-148 -77 147 0
-148 77 -147 0
149 -77 -147 0
-149 147 0
-149 77 0
150 -147 0
150 -149 0
150 -77 0
-150 77 147 149 0
151 -78 -150 0
151 78 150 0
-151 -78 150 0
-151 78 -150 0
152 -78 -150 0
-152 150 0
-152 78 0
153 -150 0
153 -152 0
153 -78 0
-153 78 150 152 0
154 -79 -153 0
154 79 153 0
-154 -79 153 0
-154 79 -153 0
155 -79 -153 0
-155 153 0
-155 79 0
156 -153 0
156 -155 0
156 -79 0
-156 79 153 155 0
157 -80 -156 0
157 80 156 0
-157 -80 156 0
-157 80 -156 0
158 -80 -156 0
-158 156 0
-158 80 0
159 -156 0
159 -158 0
159 -80 0
-159 80 156 158 0
160 -65 0
-160 65 0
161 115 -160 0
-161 160 0
-161 -115 0
162 -161 0
-162 161 0
163 118 -162 0
-163 162 0
-163 -118 0
164 -163 0
-164 163 0
165 121 -164 0
-165 164 0
-165 -121 0
166 -165 0
-166 165 0
167 124 -166 0
-167 166 0
-167 -124 0
168 -167 0
-168 167 0
169 127 -168 0
-169 168 0
-169 -127 0
170 -169 0
-170 169 0
171 130 -170 0
-171 170 0
-171 -130 0
172 -171 0
-172 171 0
173 133 -172 0
-173 172 0
-173 -133 0
174 -173 0
-174 173 0
175 136 -174 0
-175 174 0
-175 -136 0
176 -175 0
-176 175 0
177 139 -176 0
-177 176 0
-177 -139 0
178 -177 0
-178 177 0
179 142 -178 0
-179 178 0
-179 -142 0
180 -179 0
-180 179 0
181 145 -180 0
-181 180 0
-181 -145 0
182 -181 0
-182 181 0
183 148 -182 0
-183 182 0
-183 -148 0
184 -183 0
-184 183 0
185 151 -184 0
-185 184 0
-185 -151 0
186 -185 0
-186 185 0
187 154 -186 0
-187 186 0
-187 -154 0
188 -187 0
-188 187 0
189 157 -188 0
-189 188 0
-189 -157 0
190 -189 0
-190 189 0
192 0
-192 190 -191 0
193 65 0
-193 -65 0
194 -115 -193 0
194 115 193 0
-194 -115 193 0
-194 115 -193 0
195 -115 -193 0
-195 193 0
-195 115 0
196 -193 0
196 -195 0
196 -115 0
-196 115 193 195 0
197 -118 -196 0
197 118 196 0
-197 -118 196 0
-197 118 -196 0
198 -118 -196 0
-198 196 0
-198 118 0
199 -196 0
199 -198 0
199 -118 0
-199 118 196 198 0
200 -121 -199 0
200 121 199 0
-200 -121 199 0
-200 121 -199 0
201 -121 -199 0
-201 199 0
-201 121 0
202 -199 0
202 -201 0
202 -121 0
-202 121 199 201 0
203 -124 -202 0
203 124 202 0
-203 -124 202 0
-203 124 -202 0
204 -124 -202 0
-204 202 0
-204 124 0
205 -202 0
205 -204 0
205 -124 0
-205 124 202 204 0
206 -127 -205 0
206 127 205 0
-206 -127 205 0
-206 127 -205 0
207 -127 -205 0
-207 205 0
-207 127 0
208 -205 0
208 -207 0
208 -127 0
-208 127 205 207 0
209 -130 -208 0
209 130 208 0
-209 -130 208 0
-209 130 -208 0
210 -130 -208 0
-210 208 0
-210 130 0
211 -208 0
211 -210 0
211 -130 0
-211 130 208 210 0
212 -133 -211 0
212 133 211 0
-212 -133 211 0
-212 133 -211 0
213 -133 -211 0
-213 211 0
-213 133 0
214 -211 0
214 -213 0
214 -133 0
-214 133 211 213 0
215 -136 -214 0
215 136 214 0
-215 -136 214 0
-215 136 -214 0
216 -136 -214 0
-216 214 0
-216 136 0
217 -214 0
217 -216 0
217 -136 0
-217 136 214 216 0
218 -139 -217 0
218 139 217 0
-218 -139 217 0
-218 139 -217 0
219 -139 -217 0
-219 217 0
-219 139 0
220 -217 0
220 -219 0
220 -139 0
-220 139 217 219 0
221 -142 -220 0
221 142 220 0
-221 -142 220 0
-221 142 -220 0
222 -142 -220 0
-222 220 0
-222 142 0
223 -220 0
223 -222 0
223 -142 0
-223 142 220 222 0
224 -145 -223 0
224 145 223 0
-224 -145 223 0
-224 145 -223 0
225 -145 -223 0
-225 223 0
-225 145 0
226 -223 0
226 -225 0
226 -145 0
-226 145 223 225 0
227 -148 -226 0
227 148 226 0
-227 -148 226 0
-227 148 -226 0
228 -148 -226 0
-228 226 0
-228 148 0
229 -226 0
229 -228 0
229 -148 0
-229 148 226 228 0
230 -151 -229 0
230 151 229 0
-230 -151 229 0
-230 151 -229 0
231 -151 -229 0
-231 229 0
-231 151 0
232 -229 0
232 -231 0
232 -151 0
-232 151 229 231 0
233 -154 -232 0
233 154 232 0
-233 -154 232 0
-233 154 -232 0
234 -154 -232 0
-234 232 0
-234 154 0
235 -232 0
235 -234 0
235 -154 0
-235 154 232 234 0
236 -157 -235 0
236 157 235 0
-236 -157 235 0
-236 157 -235 0
237 -157 -235 0
-237 235 0
-237 157 0
238 -235 0
238 -237 0
238 -157 0
-238 157 235 237 0
239 -236 0
239 -233 0
239 -230 0
239 -227 0
239 -224 0
239 -221 0
239 -218 0
239 -215 0
239 -212 0
239 -209 0
239 -206 0
239 -203 0
239 -200 0
239 -197 0
239 -194 0
239 -65 0
-239 65 194 197 200 203 206 209 212 215 218 221 224 227 230 233 236 0
241 0
-241 -239 -240 0
242 1 -65 0
242 -1 65 0
-242 1 65 0
-242 -1 -65 0
243 2 -66 0
243 -2 66 0
-243 2 66 0
-243 -2 -66 0
244 3 -67 0
244 -3 67 0
-244 3 67 0
-244 -3 -67 0
245 4 -68 0
245 -4 68 0
-245 4 68 0
-245 -4 -68 0
246 5 -69 0
246 -5 69 0
-246 5 69 0
-246 -5 -69 0
247 6 -70 0
247 -6 70 0
-247 6 70 0
-247 -6 -70 0
248 7 -71 0
248 -7 71 0
-248 7 71 0
-248 -7 -71 0
249 8 -72 0
249 -8 72 0
-249 8 72 0
-249 -8 -72 0
250 9 -73 0
250 -9 73 0
-250 9 73 0
-250 -9 -73 0
251 10 -74 0
251 -10 74 0
-251 10 74 0
-251 -10 -74 0
252 11 -75 0
252 -11 75 0
-252 11 75 0
-252 -11 -75 0
253 12 -76 0
253 -12 76 0
-253 12 76 0
-253 -12 -76 0
254 13 -77 0
254 -13 77 0
-254 13 77 0
-254 -13 -77 0
255 14 -78 0
255 -14 78 0
-255 14 78 0
-255 -14 -78 0
256 15 -79 0
256 -15 79 0
-256 15 79 0
-256 -15 -79 0
257 16 -80 0
257 -16 80 0
-257 16 80 0
-257 -16 -80 0
258 242 243 244 245 246 247 248 249 250 251 252 253 254 255 256 257 0
-258 -257 0
-258 -256 0
-258 -255 0
-258 -254 0
-258 -253 0
-258 -252 0
-258 -251 0
-258 -250 0
-258 -249 0
-258 -248 0
-258 -247 0
-258 -246 0
-258 -245 0
-258 -244 0
-258 -243 0
-258 -242 0
259 33 65 0
259 -33 -65 0
-259 33 -65 0
-259 -33 65 0
260 34 -115 0
260 -34 115 0
-260 34 115 0
-260 -34 -115 0
261 35 -118 0
261 -35 118 0
-261 35 118 0
-261 -35 -118 0
262 36 -121 0
262 -36 121 0
-262 36 121 0
-262 -36 -121 0
263 37 -124 0
263 -37 124 0
-263 37 124 0
-263 -37 -124 0
264 38 -127 0
264 -38 127 0
-264 38 127 0
-264 -38 -127 0
265 39 -130 0
265 -39 130 0
-265 39 130 0
-265 -39 -130 0
266 40 -133 0
266 -40 133 0
-266 40 133 0
-266 -40 -133 0
267 41 -136 0
267 -41 136 0
-267 41 136 0
-267 -41 -136 0
268 42 -139 0
268 -42 139 0
-268 42 139 0
-268 -42 -139 0
269 43 -142 0
269 -43 142 0
-269 43 142 0
-269 -43 -142 0
270 44 -145 0
270 -44 145 0
-270 44 145 0
-270 -44 -145 0
271 45 -148 0
271 -45 148 0
-271 45 148 0
-271 -45 -148 0
272 46 -151 0
272 -46 151 0
-272 46 151 0
-272 -46 -151 0
273 47 -154 0
273 -47 154 0
-273 47 154 0
-273 -47 -154 0
274 48 -157 0
274 -48 157 0
-274 48 157 0
-274 -48 -157 0
275 259 260 261 262 263 264 265 266 267 268 269 270 271 272 273 274 0
-275 -274 0
-275 -273 0
-275 -272 0
-275 -271 0
-275 -270 0
-275 -269 0
-275 -268 0
-275 -267 0
-275 -266 0
-275 -265 0
-275 -264 0
-275 -263 0
-275 -262 0
-275 -261 0
-275 -260 0
-275 -259 0
292 17 -276 0
292 -17 276 0
-292 17 276 0
-292 -17 -276 0
293 18 -277 0
293 -18 277 0
-293 18 277 0
-293 -18 -277 0
294 19 -278 0
294 -19 278 0
-294 19 278 0
-294 -19 -278 0
295 20 -279 0
295 -20 279 0
-295 20 279 0
-295 -20 -279 0
296 21 -280 0
296 -21 280 0
-296 21 280 0
-296 -21 -280 0
297 22 -281 0
297 -22 281 0
-297 22 281 0
-297 -22 -281 0
298 23 -282 0
298 -23 282 0
-298 23 282 0
-298 -23 -282 0
299 24 -283 0
299 -24 283 0
-299 24 283 0
-299 -24 -283 0
300 25 -284 0
300 -25 284 0
-300 25 284 0
-300 -25 -284 0
301 26 -285 0
301 -26 285 0
-301 26 285 0
-301 -26 -285 0
302 27 -286 0
302 -27 286 0
-302 27 286 0
-302 -27 -286 0
303 28 -287 0
303 -28 287 0
-303 28 287 0
-303 -28 -287 0
304 29 -288 0
304 -29 288 0
-304 29 288 0
-304 -29 -288 0
305 30 -289 0
305 -30 289 0
-305 30 289 0
-305 -30 -289 0
306 31 -290 0
306 -31 290 0
-306 31 290 0
-306 -31 -290 0
307 32 -291 0
307 -32 291 0
-307 32 291 0
-307 -32 -291 0
308 292 293 294 295 296 297 298 299 300 301 302 303 304 305 306 307 0
-308 -307 0
-308 -306 0
-308 -305 0
-308 -304 0
-308 -303 0
-308 -302 0
-308 -301 0
-308 -300 0
-308 -299 0
-308 -298 0
-308 -297 0
-308 -296 0
-308 -295 0
-308 -294 0
-308 -293 0
-308 -292 0
309 49 -65 0
309 -49 65 0
-309 49 65 0
-309 -49 -65 0
310 50 -194 0
310 -50 194 0
-310 50 194 0
-310 -50 -194 0
311 51 -197 0
311 -51 197 0
-311 51 197 0
-311 -51 -197 0
312 52 -200 0
312 -52 200 0
-312 52 200 0
-312 -52 -200 0
313 53 -203 0
313 -53 203 0
-313 53 203 0
-313 -53 -203 0
314 54 -206 0
314 -54 206 0
-314 54 206 0
-314 -54 -206 0
315 55 -209 0
315 -55 209 0
-315 55 209 0
-315 -55 -209 0
316 56 -212 0
316 -56 212 0
-316 56 212 0
-316 -56 -212 0
317 57 -215 0
317 -57 215 0
-317 57 215 0
-317 -57 -215 0
318 58 -218 0
318 -58 218 0
-318 58 218 0
-318 -58 -218 0
319 59 -221 0
319 -59 221 0
-319 59 221 0
-319 -59 -221 0
320 60 -224 0
320 -60 224 0
-320 60 224 0
-320 -60 -224 0
321 61 -227 0
321 -61 227 0
-321 61 227 0
-321 -61 -227 0
322 62 -230 0
322 -62 230 0
-322 62 230 0
-322 -62 -230 0
323 63 -233 0
323 -63 233 0
-323 63 233 0
-323 -63 -233 0
324 64 -236 0
324 -64 236 0
-324 64 236 0
-324 -64 -236 0
325 309 310 311 312 313 314 315 316 317 318 319 320 321 322 323 324 0
-325 -324 0
-325 -323 0
-325 -322 0
-325 -321 0
-325 -320 0
-325 -319 0
-325 -318 0
-325 -317 0
-325 -316 0
-325 -315 0
-325 -314 0
-325 -313 0
-325 -312 0
-325 -311 0
-325 -310 0
-325 -309 0
326 111 190 239 -258 -275 -308 -325 0
-326 325 0
-326 308 0
-326 275 0
-326 258 0
-326 -239 0
-326 -190 0
-326 -111 0
359 327 -343 0
-359 -327 0
-359 343 0
360 327 0
360 -343 0
360 -359 0
-360 -327 343 359 0
361 328 -344 0
-361 -328 0
-361 344 0
362 -344 -360 0
-362 360 0
-362 344 0
363 328 -360 0
-363 360 0
-363 -328 0
364 -363 0
364 -362 0
364 -361 0
-364 361 362 363 0
365 329 -345 0
-365 -329 0
-365 345 0
366 -345 -364 0
-366 364 0
-366 345 0
367 329 -364 0
-367 364 0
-367 -329 0
368 -367 0
368 -366 0
368 -365 0
-368 365 366 367 0
369 330 -346 0
-369 -330 0
-369 346 0
370 -346 -368 0
-370 368 0
-370 346 0
371 330 -368 0
-371 368 0
-371 -330 0
372 -371 0
372 -370 0
372 -369 0
-372 369 370 371 0
373 331 -347 0
-373 -331 0
-373 347 0
374 -347 -372 0
-374 372 0
-374 347 0
375 331 -372 0
-375 372 0
-375 -331 0
376 -375 0
376 -374 0
376 -373 0
-376 373 374 375 0
377 332 -348 0
-377 -332 0
-377 348 0
378 -348 -376 0
-378 376 0
-378 348 0
379 332 -376 0
-379 376 0
-379 -332 0
380 -379 0
380 -378 0
380 -377 0
-380 377 378 379 0
381 333 -349 0
-381 -333 0
-381 349 0
382 -349 -380 0
-382 380 0
-382 349 0
383 333 -380 0
-383 380 0
-383 -333 0
384 -383 0
384 -382 0
384 -381 0
-384 381 382 383 0
385 334 -350 0
-385 -334 0
-385 350 0
386 -350 -384 0
-386 384 0
-386 350 0
387 334 -384 0
-387 384 0
-387 -334 0
388 -387 0
388 -386 0
388 -385 0
-388 385 386 387 0
389 335 -351 0
-389 -335 0
-389 351 0
390 -351 -388 0
-390 388 0
-390 351 0
391 335 -388 0
-391 388 0
-391 -335 0
392 -391 0
392 -390 0
392 -389 0
-392 389 390 391 0
393 336 -352 0
-393 -336 0
-393 352 0
394 -352 -392 0
-394 392 0
-394 352 0
395 336 -392 0
-395 392 0
-395 -336 0
396 -395 0
396 -394 0
396 -393 0
-396 393 394 395 0
397 337 -353 0
-397 -337 0
-397 353 0
398 -353 -396 0
-398 396 0
-398 353 0
399 337 -396 0
-399 396 0
-399 -337 0
400 -399 0
400 -398 0
400 -397 0
-400 397 398 399 0
401 338 -354 0
-401 -338 0
-401 354 0
402 -354 -400 0
-402 400 0
-402 354 0
403 338 -400 0
-403 400 0
-403 -338 0
404 -403 0
404 -402 0
404 -401 0
-404 401 402 403 0
405 339 -355 0
-405 -339 0
-405 355 0
406 -355 -404 0
-406 404 0
-406 355 0
407 339 -404 0
-407 404 0
-407 -339 0
408 -407 0
408 -406 0
408 -405 0
-408 405 406 407 0
409 340 -356 0
-409 -340 0
-409 356 0
410 -356 -408 0
-410 408 0
-410 356 0
411 340 -408 0
-411 408 0
-411 -340 0
412 -411 0
412 -410 0
412 -409 0
-412 409 410 411 0
413 341 -357 0
-413 -341 0
-413 357 0
414 -357 -412 0
-414 412 0
-414 357 0
415 341 -412 0
-415 412 0
-415 -341 0
416 -415 0
416 -414 0
416 -413 0
-416 413 414 415 0
417 342 -358 0
-417 -342 0
-417 358 0
418 -358 -416 0
-418 416 0
-418 358 0
419 342 -416 0
-419 416 0
-419 -342 0
420 -419 0
420 -418 0
420 -417 0
-420 417 418 419 0
422 0
-422 420 -421 0
455 423 -439 0
-455 -423 0
-455 439 0
456 423 0
456 -439 0
456 -455 0
-456 -423 439 455 0
457 424 -440 0
-457 -424 0
-457 440 0
458 -440 -456 0
-458 456 0
-458 440 0
459 424 -456 0
-459 456 0
-459 -424 0
460 -459 0
460 -458 0
460 -457 0
-460 457 458 459 0
461 425 -441 0
-461 -425 0
-461 441 0
462 -441 -460 0
-462 460 0
-462 441 0
463 425 -460 0
-463 460 0
-463 -425 0
464 -463 0
464 -462 0
464 -461 0
-464 461 462 463 0
465 426 -442 0
-465 -426 0
-465 442 0
466 -442 -464 0
-466 464 0
-466 442 0
467 426 -464 0
-467 464 0
-467 -426 0
468 -467 0
468 -466 0
468 -465 0
-468 465 466 467 0
469 427 -443 0
-469 -427 0
-469 443 0
470 -443 -468 0
-470 468 0
-470 443 0
471 427 -468 0
-471 468 0
-471 -427 0
472 -471 0
472 -470 0
472 -469 0
-472 469 470 471 0
473 428 -444 0
-473 -428 0
-473 444 0
474 -444 -472 0
-474 472 0
-474 444 0
475 428 -472 0
-475 472 0
-475 -428 0
476 -475 0
476 -474 0
476 -473 0
-476 473 474 475 0
477 429 -445 0
-477 -429 0
-477 445 0
478 -445 -476 0
-478 476 0
-478 445 0
479 429 -476 0
-479 476 0
-479 -429 0
480 -479 0
480 -478 0
480 -477 0
-480 477 478 479 0
481 430 -446 0
-481 -430 0
-481 446 0
482 -446 -480 0
-482 480 0
-482 446 0
483 430 -480 0
-483 480 0
-483 -430 0
484 -483 0
484 -482 0
484 -481 0
-484 481 482 483 0
485 431 -447 0
-485 -431 0
-485 447 0
486 -447 -484 0
-486 484 0
-486 447 0
487 431 -484 0
-487 484 0
-487 -431 0
488 -487 0
488 -486 0
488 -485 0
-488 485 486 487 0
489 432 -448 0
-489 -432 0
-489 448 0
490 -448 -488 0
-490 488 0
-490 448 0
491 432 -488 0
-491 488 0
-491 -432 0
492 -491 0
492 -490 0
492 -489 0
-492 489 490 491 0
493 433 -449 0
-493 -433 0
-493 449 0
494 -449 -492 0
-494 492 0
-494 449 0
495 433 -492 0
-495 492 0
-495 -433 0
496 -495 0
496 -494 0
496 -493 0
-496 493 494 495 0
497 434 -450 0
-497 -434 0
-497 450 0
498 -450 -496 0
-498 496 0
-498 450 0
499 434 -496 0
-499 496 0
-499 -434 0
500 -499 0
500 -498 0
500 -497 0
-500 497 498 499 0
501 435 -451 0
-501 -435 0
-501 451 0
502 -451 -500 0
-502 500 0
-502 451 0
503 435 -500 0
-503 500 0
-503 -435 0
504 -503 0
504 -502 0
504 -501 0
-504 501 502 503 0
505 436 -452 0
-505 -436 0
-505 452 0
506 -452 -504 0
-506 504 0
-506 452 0
507 436 -504 0
-507 504 0
-507 -436 0
508 -507 0
508 -506 0
508 -505 0
-508 505 506 507 0
509 437 -453 0
-509 -437 0
-509 453 0
510 -453 -508 0
-510 508 0
-510 453 0
511 437 -508 0
-511 508 0
-511 -437 0
512 -511 0
512 -510 0
512 -509 0
-512 509 510 511 0
513 438 -454 0
-513 -438 0
-513 454 0
514 -454 -512 0
-514 512 0
-514 454 0
515 438 -512 0
-515 512 0
-515 -438 0
516 -515 0
516 -514 0
516 -513 0
-516 513 514 515 0
518 0
-518 516 -517 0
519 -326 0
519 420 516 0
-519 -516 0
-519 -420 0
520 1 -33 0
520 -1 33 0
-520 1 33 0
-520 -1 -33 0
521 2 -34 0
521 -2 34 0
-521 2 34 0
-521 -2 -34 0
522 3 -35 0
522 -3 35 0
-522 3 35 0
-522 -3 -35 0
523 4 -36 0
523 -4 36 0
-523 4 36 0
-523 -4 -36 0
524 5 -37 0
524 -5 37 0
-524 5 37 0
-524 -5 -37 0
525 6 -38 0
525 -6 38 0
-525 6 38 0
-525 -6 -38 0
526 7 -39 0
526 -7 39 0
-526 7 39 0
-526 -7 -39 0
527 8 -40 0
527 -8 40 0
-527 8 40 0
-527 -8 -40 0
528 9 -41 0
528 -9 41 0
-528 9 41 0
-528 -9 -41 0
529 10 -42 0
529 -10 42 0
-529 10 42 0
-529 -10 -42 0
530 11 -43 0
530 -11 43 0
-530 11 43 0
-530 -11 -43 0
531 12 -44 0
531 -12 44 0
-531 12 44 0
-531 -12 -44 0
532 13 -45 0
532 -13 45 0
-532 13 45 0
-532 -13 -45 0
533 14 -46 0
533 -14 46 0
-533 14 46 0
-533 -14 -46 0
534 15 -47 0
534 -15 47 0
-534 15 47 0
-534 -15 -47 0
535 16 -48 0
535 -16 48 0
-535 16 48 0
-535 -16 -48 0
536 520 521 522 523 524 525 526 527 528 529 530 531 532 533 534 535 0
-536 -535 0
-536 -534 0
-536 -533 0
-536 -532 0
-536 -531 0
-536 -530 0
-536 -529 0
-536 -528 0
-536 -527 0
-536 -526 0
-536 -525 0
-536 -524 0
-536 -523 0
-536 -522 0
-536 -521 0
-536 -520 0
537 327 -343 0
537 -327 343 0
-537 327 343 0
-537 -327 -343 0
538 328 -344 0
538 -328 344 0
-538 328 344 0
-538 -328 -344 0
539 329 -345 0
539 -329 345 0
-539 329 345 0
-539 -329 -345 0
540 330 -346 0
540 -330 346 0
-540 330 346 0
-540 -330 -346 0
541 331 -347 0
541 -331 347 0
-541 331 347 0
-541 -331 -347 0
542 332 -348 0
542 -332 348 0
-542 332 348 0
-542 -332 -348 0
543 333 -349 0
543 -333 349 0
-543 333 349 0
-543 -333 -349 0
544 334 -350 0
544 -334 350 0
-544 334 350 0
-544 -334 -350 0
545 335 -351 0
545 -335 351 0
-545 335 351 0
-545 -335 -351 0
546 336 -352 0
546 -336 352 0
-546 336 352 0
-546 -336 -352 0
547 337 -353 0
547 -337 353 0
-547 337 353 0
-547 -337 -353 0
548 338 -354 0
548 -338 354 0
-548 338 354 0
-548 -338 -354 0
549 339 -355 0
549 -339 355 0
-549 339 355 0
-549 -339 -355 0
550 340 -356 0
550 -340 356 0
-550 340 356 0
-550 -340 -356 0
551 341 -357 0
551 -341 357 0
-551 341 357 0
-551 -341 -357 0
552 342 -358 0
552 -342 358 0
-552 342 358 0
-552 -342 -358 0
553 -536 0
553 537 538 539 540 541 542 543 544 545 546 547 548 549 550 551 552 0
-553 -552 0
-553 -551 0
-553 -550 0
-553 -549 0
-553 -548 0
-553 -547 0
-553 -546 0
-553 -545 0
-553 -544 0
-553 -543 0
-553 -542 0
-553 -541 0
-553 -540 0
-553 -539 0
-553 -538 0
-553 -537 0
554 17 -49 0
554 -17 49 0
-554 17 49 0
-554 -17 -49 0
555 18 -50 0
555 -18 50 0
-555 18 50 0
-555 -18 -50 0
556 19 -51 0
556 -19 51 0
-556 19 51 0
-556 -19 -51 0
557 20 -52 0
557 -20 52 0
-557 20 52 0
-557 -20 -52 0
558 21 -53 0
558 -21 53 0
-558 21 53 0
-558 -21 -53 0
559 22 -54 0
559 -22 54 0
-559 22 54 0
-559 -22 -54 0
560 23 -55 0
560 -23 55 0
-560 23 55 0
-560 -23 -55 0
561 24 -56 0
561 -24 56 0
-561 24 56 0
-561 -24 -56 0
562 25 -57 0
562 -25 57 0
-562 25 57 0
-562 -25 -57 0
563 26 -58 0
563 -26 58 0
-563 26 58 0
-563 -26 -58 0
564 27 -59 0
564 -27 59 0
-564 27 59 0
-564 -27 -59 0
565 28 -60 0
565 -28 60 0
-565 28 60 0
-565 -28 -60 0
566 29 -61 0
566 -29 61 0
-566 29 61 0
-566 -29 -61 0
567 30 -62 0
567 -30 62 0
-567 30 62 0
-567 -30 -62 0
568 31 -63 0
568 -31 63 0
-568 31 63 0
-568 -31 -63 0
569 32 -64 0
569 -32 64 0
-569 32 64 0
-569 -32 -64 0
570 554 555 556 557 558 559 560 561 562 563 564 565 566 567 568 569 0
-570 -569 0
-570 -568 0
-570 -567 0
-570 -566 0
-570 -565 0
-570 -564 0
-570 -563 0
-570 -562 0
-570 -561 0
-570 -560 0
-570 -559 0
-570 -558 0
-570 -557 0
-570 -556 0
-570 -555 0
-570 -554 0
571 423 -439 0
571 -423 439 0
-571 423 439 0
-571 -423 -439 0
572 424 -440 0
572 -424 440 0
-572 424 440 0
-572 -424 -440 0
573 425 -441 0
573 -425 441 0
-573 425 441 0
-573 -425 -441 0
574 426 -442 0
574 -426 442 0
-574 426 442 0
-574 -426 -442 0
575 427 -443 0
575 -427 443 0
-575 427 443 0
-575 -427 -443 0
576 428 -444 0
576 -428 444 0
-576 428 444 0
-576 -428 -444 0
577 429 -445 0
577 -429 445 0
-577 429 445 0
-577 -429 -445 0
578 430 -446 0
578 -430 446 0
-578 430 446 0
-578 -430 -446 0
579 431 -447 0
579 -431 447 0
-579 431 447 0
-579 -431 -447 0
580 432 -448 0
580 -432 448 0
-580 432 448 0
-580 -432 -448 0
581 433 -449 0
581 -433 449 0
-581 433 449 0
-581 -433 -449 0
582 434 -450 0
582 -434 450 0
-582 434 450 0
-582 -434 -450 0
583 435 -451 0
583 -435 451 0
-583 435 451 0
-583 -435 -451 0
584 436 -452 0
584 -436 452 0
-584 436 452 0
-584 -436 -452 0
585 437 -453 0
585 -437 453 0
-585 437 453 0
-585 -437 -453 0
586 438 -454 0
586 -438 454 0
-586 438 454 0
-586 -438 -454 0
587 -570 0
587 571 572 573 574 575 576 577 578 579 580 581 582 583 584 585 586 0
-587 -586 0
-587 -585 0
-587 -584 0
-587 -583 0
-587 -582 0
-587 -581 0
-587 -580 0
-587 -579 0
-587 -578 0
-587 -577 0
-587 -576 0
-587 -575 0
-587 -574 0
-587 -573 0
-587 -572 0
-587 -571 0
